# HEADER,  detda.mol  read w/ mol2lmp > atom_typing v1.7 / 4 November 2023 w/PCFF-IFF atom-types > all2lmp: v1.14 / 18 December 2023  Class: 2



--------------------------------------------------Force Field--------------------------------------------------
bond_style           class2
angle_style          class2
dihedral_style       class2
improper_style       class2
special_bonds        lj/coul 0 0 1 # PLEASE CHECK I AM CORRECT

pair_style           lj/class2/coul/long 12.0
kspace_style         pppm 1.0e-4
pair_modify          mix sixthpower

neighbor             2.0 bin
neigh_modify         delay 0 every 1 check yes one 5000 page 100000


--------------------------------------------------Pair Coeffs--------------------------------------------------
pair_coeff     1           0.0540000000    4.0100000000 # c2
pair_coeff     2           0.0540000000    3.9000000000 # c3
pair_coeff     3           0.0640000000    4.0100000000 # cp
pair_coeff     4           0.0200000000    2.9950000000 # hc
pair_coeff     5           0.0130000000    1.0980000000 # hn
pair_coeff     6           0.0650000000    4.0700000000 # nn


--------------------------------------------------Bond Coeffs--------------------------------------------------
bond_coeff     1           1.5300000000  299.6700000000 -501.7700000000  679.8100000000 # c2          c3
bond_coeff     2           1.5010000000  321.9021000000 -521.8208000000  572.1628000000 # c2          cp
bond_coeff     3           1.1010000000  345.0000000000 -691.8900000000  844.6000000000 # c2          hc
bond_coeff     4           1.5010000000  321.9021000000 -521.8208000000  572.1628000000 # c3          cp
bond_coeff     5           1.1010000000  345.0000000000 -691.8900000000  844.6000000000 # c3          hc
bond_coeff     6           1.4170000000  470.8361000000 -627.6179000000 1327.6345000000 # cp          cp
bond_coeff     7           1.0982000000  372.8251000000 -803.4526000000  894.3173000000 # cp          hc
bond_coeff     8           1.3912000000  447.0438000000 -784.5346000000  886.1671000000 # cp          nn
bond_coeff     9           1.0012000000  465.8608000000-1066.2360000000 1496.5647000000 # hn          nn


--------------------------------------------------Angle Coeffs--------------------------------------------------
angle_coeff     1         110.7700000000   41.4530000000  -10.6040000000    5.1290000000 # c2         c3         hc
angle_coeff     2         120.0500000000   44.7148000000  -22.7352000000    0.0000000000 # c2         cp         cp
angle_coeff     3         108.4000000000   43.9594000000   -8.3924000000   -9.3379000000 # c3         c2         cp
angle_coeff     4         110.7700000000   41.4530000000  -10.6040000000    5.1290000000 # c3         c2         hc
angle_coeff     5         120.0500000000   44.7148000000  -22.7352000000    0.0000000000 # c3         cp         cp
angle_coeff     6         111.0000000000   44.3234000000   -9.4454000000    0.0000000000 # cp         c2         hc
angle_coeff     7         111.0000000000   44.3234000000   -9.4454000000    0.0000000000 # cp         c3         hc
angle_coeff     8         118.9000000000   61.0226000000  -34.9931000000    0.0000000000 # cp         cp         cp
angle_coeff     9         117.9400000000   35.1558000000  -12.4682000000    0.0000000000 # cp         cp         hc
angle_coeff     10        121.4584000000   61.0647000000  -21.6172000000    0.0000000000 # cp         cp         nn
angle_coeff     11        111.8725000000   40.8369000000  -15.6673000000    0.0000000000 # cp         nn         hn
angle_coeff     12        107.6600000000   39.6410000000  -12.9210000000   -2.4318000000 # hc         c2         hc
angle_coeff     13        107.6600000000   39.6410000000  -12.9210000000   -2.4318000000 # hc         c3         hc
angle_coeff     14        107.5130000000   42.5182000000  -21.7566000000   -4.3372000000 # hn         nn         hn


--------------------------------------------------Dihedral Coeffs--------------------------------------------------
dihedral_coeff     1          -0.0228000000    0.0000000000    0.0280000000    0.0000000000   -0.1863000000    0.0000000000 # cp         c2        c3         hc
dihedral_coeff     2          -0.1432000000    0.0000000000    0.0617000000    0.0000000000   -0.1083000000    0.0000000000 # hc         c2        c3         hc
dihedral_coeff     3          -0.2802000000    0.0000000000   -0.0678000000    0.0000000000   -0.0122000000    0.0000000000 # c3         c2        cp         cp
dihedral_coeff     4          -0.2801000000    0.0000000000   -0.0678000000    0.0000000000   -0.0122000000    0.0000000000 # hc         c2        cp         cp
dihedral_coeff     5          -0.2801000000    0.0000000000   -0.0678000000    0.0000000000   -0.0122000000    0.0000000000 # hc         c3        cp         cp
dihedral_coeff     6           0.0000000000    0.0000000000    4.4072000000    0.0000000000    0.0000000000    0.0000000000 # c3         cp        cp         cp
dihedral_coeff     7           0.0000000000    0.0000000000    4.4072000000    0.0000000000    0.0000000000    0.0000000000 # c2         cp        cp         cp
dihedral_coeff     8           8.3667000000    0.0000000000    1.1932000000    0.0000000000    0.0000000000    0.0000000000 # cp         cp        cp         cp
dihedral_coeff     9           0.0000000000    0.0000000000    3.9661000000    0.0000000000    0.0000000000    0.0000000000 # cp         cp        cp         hc
dihedral_coeff     10          0.0000000000    0.0000000000    1.5590000000    0.0000000000    0.0000000000    0.0000000000 # c2         cp        cp         hc
dihedral_coeff     11          0.0000000000    0.0000000000    3.0000000000    0.0000000000    0.0000000000    0.0000000000 # c3         cp        cp         nn
dihedral_coeff     12          0.0000000000    0.0000000000    3.0000000000    0.0000000000    0.0000000000    0.0000000000 # c2         cp        cp         nn
dihedral_coeff     13          0.0000000000    0.0000000000    5.3826000000    0.0000000000    0.0000000000    0.0000000000 # cp         cp        cp         nn
dihedral_coeff     14          0.0000000000    0.0000000000    1.2190000000    0.0000000000    0.0000000000    0.0000000000 # cp         cp        nn         hn


--------------------------------------------------Improper Coeffs--------------------------------------------------
improper_coeff     1           7.8153000000    0.0000000000 # c2         cp        cp        cp      nb==3
improper_coeff     2           7.8153000000    0.0000000000 # c3         cp        cp        cp      nb==3
improper_coeff     3           4.8912000000    0.0000000000 # cp         cp        cp        hc      nb==3
improper_coeff     4          10.7855000000    0.0000000000 # cp         cp        cp        nn      nb==3
improper_coeff     5           0.0000000000    0.0000000000 # cp         nn        hn        hn      nb==3
improper_coeff     6           0.0000000000    0.0000000000 # c2         c3        hc        hc      nb!=3
improper_coeff     7           0.0000000000    0.0000000000 # c3         c2        cp        hc      nb!=3
improper_coeff     8           0.0000000000    0.0000000000 # c3         c2        hc        hc      nb!=3
improper_coeff     9           0.0000000000    0.0000000000 # cp         c2        hc        hc      nb!=3
improper_coeff     10          0.0000000000    0.0000000000 # cp         c3        hc        hc      nb!=3
improper_coeff     11          0.0000000000    0.0000000000 # hc         c3        hc        hc      nb!=3


--------------------------------------------------BondBond Coeffs--------------------------------------------------
angle_coeff   bb       1           3.3872000000    1.5300000000    1.1010000000 # c2         c3         hc
angle_coeff   bb       2          12.0676000000    1.5010000000    1.4170000000 # c2         cp         cp
angle_coeff   bb       3           0.0000000000    1.5300000000    1.5010000000 # c3         c2         cp
angle_coeff   bb       4           3.3872000000    1.5300000000    1.1010000000 # c3         c2         hc
angle_coeff   bb       5          12.0676000000    1.5010000000    1.4170000000 # c3         cp         cp
angle_coeff   bb       6           2.9168000000    1.5010000000    1.1010000000 # cp         c2         hc
angle_coeff   bb       7           2.9168000000    1.5010000000    1.1010000000 # cp         c3         hc
angle_coeff   bb       8          68.2856000000    1.4170000000    1.4170000000 # cp         cp         cp
angle_coeff   bb       9           1.0795000000    1.4170000000    1.0982000000 # cp         cp         hc
angle_coeff   bb       10         46.9513000000    1.4170000000    1.3912000000 # cp         cp         nn
angle_coeff   bb       11          4.5393000000    1.3912000000    1.0012000000 # cp         nn         hn
angle_coeff   bb       12          5.3316000000    1.1010000000    1.1010000000 # hc         c2         hc
angle_coeff   bb       13          5.3316000000    1.1010000000    1.1010000000 # hc         c3         hc
angle_coeff   bb       14         -9.9447000000    1.0012000000    1.0012000000 # hn         nn         hn


--------------------------------------------------BondAngle Coeffs--------------------------------------------------
angle_coeff   ba       1          20.7540000000   11.4210000000    1.5300000000    1.1010000000 # c2         c3         hc
angle_coeff   ba       2          47.0579000000   31.0771000000    1.5010000000    1.4170000000 # c2         cp         cp
angle_coeff   ba       3           0.0000000000    0.0000000000    1.5300000000    1.5010000000 # c3         c2         cp
angle_coeff   ba       4          20.7540000000   11.4210000000    1.5300000000    1.1010000000 # c3         c2         hc
angle_coeff   ba       5          47.0579000000   31.0771000000    1.5010000000    1.4170000000 # c3         cp         cp
angle_coeff   ba       6          26.4608000000   11.7717000000    1.5010000000    1.1010000000 # cp         c2         hc
angle_coeff   ba       7          26.4608000000   11.7717000000    1.5010000000    1.1010000000 # cp         c3         hc
angle_coeff   ba       8          28.8708000000   28.8708000000    1.4170000000    1.4170000000 # cp         cp         cp
angle_coeff   ba       9          20.0033000000   24.2183000000    1.4170000000    1.0982000000 # cp         cp         hc
angle_coeff   ba       10         39.4040000000   73.6548000000    1.4170000000    1.3912000000 # cp         cp         nn
angle_coeff   ba       11         38.5704000000   16.5524000000    1.3912000000    1.0012000000 # cp         nn         hn
angle_coeff   ba       12         18.1030000000   18.1030000000    1.1010000000    1.1010000000 # hc         c2         hc
angle_coeff   ba       13         18.1030000000   18.1030000000    1.1010000000    1.1010000000 # hc         c3         hc
angle_coeff   ba       14         17.1597000000   17.1597000000    1.0012000000    1.0012000000 # hn         nn         hn
